p cnf 36 152
-1 -13 0
-1 -19 0
-1 -25 0
-1 -3 0
-1 -31 0
-1 -4 -6 0
-1 -7 0
-1 2 0
-11 -17 -23 0
-11 -23 -35 0
-11 -23 5 0
-12 -24 0
-12 -30 0
-12 -36 0
-12 -9 0
-12 18 6 0
-13 -14 0
-13 -15 -17 0
-13 -15 -18 0
-13 -19 0
-13 -25 0
-13 -31 0
-13 -7 0
-14 -15 0
-14 17 0
-15 -16 -17 0
-15 -16 13 0
-15 -17 18 0
-15 -27 0
-15 -3 0
-15 -33 0
-15 13 18 0
-15 21 9 0
-16 -18 0
-17 -23 35 0
-17 -5 0
-17 29 35 0
-18 -30 0
-18 -36 0
-18 -6 0
-18 12 24 0
-18 17 0
-19 -22 0
-19 -23 0
-19 -24 0
-19 -25 0
-19 -31 0
-19 -7 0
-19 21 0
-2 -3 -4 0
-2 -32 0
-2 -4 -6 0
-2 -4 1 0
-20 -23 0
-20 -24 0
-20 21 0
-21 -24 0
-21 -3 0
-21 -33 0
-21 -9 0
-23 -29 0
-23 -35 -5 0
-23 -35 17 0
-23 35 5 0
-24 -36 0
-24 -6 0
-24 18 30 0
-24 23 0
-25 -29 0
-25 -30 0
-25 -31 0
-25 -7 0
-26 -30 0
-27 -3 0
-27 -9 0
-27 21 33 0
-29 -35 0
-3 -33 0
-3 -4 6 0
-3 5 6 0
-3 9 0
-30 -6 0
-30 24 36 0
-30 29 0
-31 -32 0
-31 -33 0
-31 -34 0
-31 -35 0
-31 -36 0
-31 -7 0
-32 -33 0
-32 -34 0
-32 -35 0
-32 -36 0
-33 -34 0
-33 -35 0
-33 -36 0
-33 -9 0
-34 -35 0
-34 -36 0
-34 -4 0
-35 -36 0
-36 -6 0
-36 30 0
-4 -5 0
-4 -6 3 0
-4 1 6 0
-5 -6 0
-5 2 0
-6 12 0
-7 -8 0
-8 -9 0
-8 12 0
-9 15 3 0
-9 7 0
1 13 19 25 31 7 0
1 3 0
1 5 6 0
10 0
11 0
12 18 30 0
12 24 30 0
12 24 36 0
12 7 0
12 9 0
13 17 0
14 0
15 17 0
15 21 3 33 0
16 0
17 5 0
18 24 36 6 0
18 30 6 0
2 3 0
2 32 0
2 4 0
2 6 0
20 0
21 23 0
21 24 0
21 33 9 0
22 0
23 29 35 0
25 29 0
26 0
27 0
28 0
29 35 5 0
31 32 33 34 35 36 0
34 4 0
4 5 6 0
8 0